NAME : portcgen-20-50
COMMENT : portcgen N=20, seed=50
TYPE : TSP
DIMENSION : 20
EDGE_WEIGHT_TYPE : EUC_2D
NODE_COORD_SECTION
1 69 88
2 60 66
3 82 93
4 71 86
5 75 97
6 85 57
7 95 81
8 84 67
9 76 70
10 92 59
11 81 48
12 76 63
13 82 63
14 66 96
15 79 66
16 72 64
17 62 64
18 74 58
19 65 93
20 99 52
